15.8
15.8
15.8
14.5
13.5
6.7
6.7
6.7
6.7
5.9
5.9
5.0
5.0
4.9
4.7
4.5
3.9
3.8
3.3
3.2
2.7
2.7
2.4
1.8
1.8
1.7
1.2
1.0
0.6
0.6
0.5
0.4
0.4
0.2
0.2
0.2
0.2
0.1
0.1
0.1
0.1
0.1
0.1
0.1
0.1
0.1
0.1
0.1
0.1
0.1
